Route 1: 0 69 50 53 72 60 59 29 55 91 20 0
Route 2: 0 52 38 86 85 48 93 1 96 58 16 0
Route 3: 0 21 42 68 14 47 37 64 100 94 0
Route 4: 0 65 81 10 9 84 92 40 3 45 0
Route 5: 0 6 13 63 75 28 80 51 2 46 73 95 24 0
Route 6: 0 98 78 23 11 17 43 31 0
Route 7: 0 27 4 49 90 30 70 82 83 39 7 61 0
Route 8: 0 15 71 56 25 89 54 19 32 66 77 18 0
Route 9: 0 8 44 88 62 34 67 26 0
Route 10: 0 36 79 74 35 5 97 0
Route 11: 0 12 41 22 87 99 57 76 33 0
